/*********************************************
 * OPL 12.7.1.0 Data
 * Author: mathieu.chiavassa, anthony.nixon
 * Creation Date: Jan 9, 2018 at 2:20:55 AM
 *********************************************/

 numNurses = 900;
 hours =  24;
 demand = [482 325 483 510 412 193 414 476 305 234 202 280 431 300 549 426 460 508 448 178 307 345 413 178];
 minHours = 6;
 maxHours = 18;
 maxConsec = 7;
 
 maxPresence = 24;
  